c DCNF-Autarky [version 0.0.1]. 
c Copyright (c) 2018-2019 Swansea University. 
c 
c Input QBF/DQBF path: Scholl18//C880.blif_0.10_0.20_0_0_inp_exact.qdimacs
c Output SAT Translation Path: /tmp/C880.blif_0.10_0.20_0_0_inp_exact.qdimacs-dcnfAutarky.dimacs
c Input Clause Count (tautology free): 2644
c
c Performing E1-Autarky iteration.
c Remaining clauses count after E-Reduction: 2640
c
c Performing A1-Autarky iteration.
c Running Lingeling ... 
c
c Remaining clauses count after A-Reduction: 2640
c
c Input Parameter (command line, file): 
c input filename   Scholl18//C880.blif_0.10_0.20_0_0_inp_exact.qdimacs
c output filename  /tmp/C880.blif_0.10_0.20_0_0_inp_exact.qdimacs-dcnfAutarky.dimacs
c autarky level    1
c conformity level 0
c encoding type    2
c no.of var        1046
c no.of clauses    2644
c no.of taut cls   0
c 
c Output Parameters: 
c remaining no.of clauses  2640
c
c filename pn pc autarky ntaut rpa rpe rpcdiff result
c "Scholl18//C880.blif_0.10_0.20_0_0_inp_exact.qdimacs" 1046 2644 "E1+A1" 0 15 1028 4 "RED" 
c Total time taken 2 secs.
c
p cnf 1046 2640
e 550 551 552 0
a 543 0
e 553 554 0
a 546 0
e 555 556 557 558 559 560 561 562 563 0
a 544 545 0
e 564 565 0
a 539 0
e 566 567 0
a 542 0
e 568 569 570 571 572 573 0
a 537 538 0
e 574 575 0
a 540 0
e 576 577 578 579 580 581 0
a 534 535 536 0
e 582 583 584 585 586 587 588 0
a 541 0
e 589 590 591 592 593 594 595 596 0
a 547 548 549 0
e 1 2 3 4 5 6 7 8 9 10 11 12 13 14 15 16 17 18 19 20 21 22 23 24 25 26 27 28 29 30 31 32 33 34 35 36 37 38 39 40 41 42 43 44 45 46 47 48 49 50 51 52 53 54 55 56 57 58 59 60 61 62 63 64 65 66 67 68 69 70 71 72 73 74 75 76 77 78 79 80 81 82 83 84 85 86 87 88 89 90 91 92 93 94 95 96 97 98 99 100 101 102 103 104 105 106 107 108 109 110 111 112 113 114 115 116 117 118 119 120 121 122 123 124 125 126 127 128 129 130 131 132 133 134 135 136 137 138 139 140 141 142 143 144 145 146 147 148 149 150 151 152 153 154 155 156 157 158 159 160 161 162 163 164 165 166 167 168 169 170 171 172 173 174 175 176 177 178 179 180 181 182 183 184 185 186 187 188 189 190 191 192 193 194 195 196 197 198 199 200 201 202 203 204 205 206 207 208 209 210 211 212 213 214 215 216 217 218 219 220 221 222 223 224 225 226 227 228 229 230 231 232 233 234 235 236 237 238 239 240 241 242 243 244 245 246 247 248 249 250 251 252 253 254 255 256 257 258 259 260 261 262 263 264 265 266 267 268 269 270 271 272 273 274 275 276 277 278 279 280 281 282 283 284 285 286 287 288 289 290 291 292 293 294 295 296 297 298 299 300 301 302 303 304 305 306 307 308 309 310 311 312 313 314 315 316 317 318 319 320 321 322 323 324 325 326 327 328 329 330 331 332 333 334 335 336 337 338 339 340 341 342 343 344 345 346 347 348 349 350 351 352 353 354 355 356 357 358 359 360 361 362 363 364 365 366 367 368 369 370 371 372 373 374 375 376 377 378 379 380 381 382 383 384 385 386 387 388 389 390 391 392 393 394 395 396 397 398 399 400 401 402 403 404 405 406 407 408 409 410 411 412 413 414 415 416 417 418 419 420 421 422 423 424 425 426 427 428 429 430 431 432 433 434 435 436 437 438 439 440 441 442 443 444 445 446 447 448 449 450 451 452 453 454 455 456 457 458 459 460 461 462 463 464 465 466 467 468 469 470 471 472 473 474 475 476 477 478 479 480 481 482 483 484 485 486 487 488 489 490 491 492 493 494 495 496 497 498 499 500 501 502 503 504 505 506 507 508 509 510 511 512 513 514 515 516 517 518 519 520 521 522 523 524 525 526 527 528 529 530 531 532 533 597 598 599 600 601 602 603 604 605 606 607 608 609 610 611 612 613 614 615 616 617 618 619 620 621 622 623 624 625 626 627 628 629 630 631 632 633 634 635 636 637 638 639 640 641 642 643 644 645 646 647 648 649 650 651 652 653 654 655 656 657 658 659 660 661 662 663 664 665 666 667 668 669 670 671 672 673 674 675 676 677 678 679 680 681 682 683 684 685 686 687 688 689 690 691 692 693 694 695 696 697 698 699 700 701 702 703 704 705 706 707 708 709 710 711 712 713 714 715 716 717 718 719 720 721 722 723 724 725 726 727 728 729 730 731 732 733 734 735 736 737 738 739 740 741 742 743 744 745 746 747 748 749 750 751 752 753 754 755 756 757 758 759 760 761 762 763 764 765 766 767 768 769 770 771 772 773 774 775 776 777 778 779 780 781 782 783 784 785 786 787 788 789 790 791 792 793 794 795 796 797 798 799 800 801 802 803 804 805 806 807 808 809 810 811 812 813 814 815 816 817 818 819 820 821 822 823 824 825 826 827 828 829 830 831 832 833 834 835 836 837 838 839 840 841 842 843 844 845 846 847 848 849 850 851 852 853 854 855 856 857 858 859 860 861 862 863 864 865 866 867 868 869 870 871 872 873 874 875 876 877 878 879 880 881 882 883 884 885 886 887 888 889 890 891 892 893 894 895 896 897 898 899 900 901 902 903 904 905 906 907 908 909 910 911 912 913 914 915 916 917 918 919 920 921 922 923 924 925 926 927 928 929 930 931 932 933 934 935 936 937 938 939 940 941 942 943 944 945 946 947 948 949 950 951 952 953 954 955 956 957 958 959 960 961 962 963 964 965 966 967 968 969 970 971 972 973 974 975 976 977 978 979 980 981 982 983 984 985 986 987 988 989 990 991 992 993 994 995 996 997 998 999 1000 1001 1002 1003 1004 1005 1006 1007 1008 1009 1010 1011 1012 1013 1014 1015 1016 1017 1018 1019 1020 1021 1022 1023 1024 1025 1026 1027 1028 1029 1030 1031 1032 1033 1034 1035 1036 1037 1038 1039 1040 1041 1042 1043 1044 1045 1046 0
-61 6 0
-61 16 0
-61 8 0
61 -16 -8 -6 0
-62 6 0
-62 7 0
-62 17 0
62 -17 -7 -6 0
-63 6 0
-63 7 0
-63 8 0
63 -8 -7 -6 0
-64 18 0
-64 19 0
64 -19 -18 0
-65 1 0
-65 2 0
-65 3 0
-65 4 0
65 -4 -3 -2 -1 0
-66 -65 0
66 65 0
-67 -66 0
67 66 0
-68 1 0
-68 5 0
-68 3 0
-68 4 0
68 -5 -4 -3 -1 0
-69 -68 0
69 68 0
-70 6 0
-70 7 0
-70 8 0
70 -8 -7 -6 0
-71 -69 0
-71 -70 0
71 70 69 0
-72 -71 0
72 71 0
-73 11 0
-73 16 0
-73 17 0
73 -17 -16 -11 0
-74 -73 0
74 73 0
-75 11 0
-75 7 0
-75 17 0
75 -17 -11 -7 0
-76 -75 0
76 75 0
-77 11 0
-77 7 0
-77 8 0
77 -11 -8 -7 0
-78 -77 0
78 77 0
-79 -20 0
-79 -21 0
79 21 20 0
-80 -79 0
80 79 0
-81 23 0
-81 80 0
81 -80 -23 0
-82 -70 0
82 70 0
-83 -69 0
-83 -82 0
83 82 69 0
-84 -83 0
84 83 0
-85 1 0
-85 5 0
-85 9 0
85 -9 -5 -1 0
-86 -85 0
86 85 0
-87 -86 0
87 86 0
-88 1 0
-88 2 0
-88 3 0
-88 10 0
88 -10 -3 -2 -1 0
-89 -88 0
89 88 0
-90 6 0
-90 12 0
90 -12 -6 0
-91 -90 0
91 90 0
-92 -89 0
-92 -91 0
92 91 89 0
-93 -92 0
93 92 0
-94 -93 0
94 93 0
-95 11 0
-95 12 0
-95 15 0
95 -15 -12 -11 0
-96 -95 0
96 95 0
-97 -89 0
-97 -96 0
97 96 89 0
-98 -97 0
98 97 0
-99 -98 0
99 98 0
-100 22 0
-100 80 0
100 -80 -22 0
-101 -100 0
101 100 0
-102 -101 0
102 101 0
-103 24 0
-103 25 0
103 -25 -24 0
-104 -103 0
104 103 0
-105 -24 0
-105 -25 0
105 25 24 0
-106 -105 0
106 105 0
-107 104 0
-107 106 0
107 -106 -104 0
-108 -107 0
108 107 0
-109 26 0
-109 27 0
109 -27 -26 0
-110 -109 0
110 109 0
-111 -26 0
-111 -27 0
111 27 26 0
-112 -111 0
112 111 0
-113 110 0
-113 112 0
113 -112 -110 0
-114 -113 0
114 113 0
-115 108 0
-115 114 0
115 -114 -108 0
-116 -108 0
116 108 0
-117 -114 0
117 114 0
-118 116 0
-118 117 0
118 -117 -116 0
-119 -115 0
-119 -118 0
119 118 115 0
-120 32 0
-120 119 0
120 -119 -32 0
-121 -120 0
121 120 0
-122 -32 0
-122 -119 0
122 119 32 0
-123 -122 0
123 122 0
-124 121 0
-124 123 0
124 -123 -121 0
-125 -124 0
125 124 0
-126 28 0
-126 29 0
126 -29 -28 0
-127 -126 0
127 126 0
-128 -28 0
-128 -29 0
128 29 28 0
-129 -128 0
129 128 0
-130 127 0
-130 129 0
130 -129 -127 0
-131 -130 0
131 130 0
-132 30 0
-132 31 0
132 -31 -30 0
-133 -132 0
133 132 0
-134 -30 0
-134 -31 0
134 31 30 0
-135 -134 0
135 134 0
-136 133 0
-136 135 0
136 -135 -133 0
-137 -136 0
137 136 0
-138 131 0
-138 137 0
138 -137 -131 0
-139 -131 0
139 131 0
-140 -137 0
140 137 0
-141 139 0
-141 140 0
141 -140 -139 0
-142 -138 0
-142 -141 0
142 141 138 0
-143 142 0
-143 33 0
143 -142 -33 0
-144 -143 0
144 143 0
-145 -142 0
-145 -33 0
145 142 33 0
-146 -145 0
146 145 0
-147 144 0
-147 146 0
147 -146 -144 0
-148 -147 0
148 147 0
-149 125 0
-149 148 0
149 -148 -125 0
-150 -125 0
150 125 0
-151 -148 0
151 148 0
-152 150 0
-152 151 0
152 -151 -150 0
-153 -149 0
-153 -152 0
153 152 149 0
-154 41 0
-154 42 0
154 -42 -41 0
-155 -154 0
155 154 0
-156 -41 0
-156 -42 0
156 42 41 0
-157 -156 0
157 156 0
-158 155 0
-158 157 0
158 -157 -155 0
-159 -158 0
159 158 0
-160 43 0
-160 44 0
160 -44 -43 0
-161 -160 0
161 160 0
-162 -43 0
-162 -44 0
162 44 43 0
-163 -162 0
163 162 0
-164 161 0
-164 163 0
164 -163 -161 0
-165 -164 0
165 164 0
-166 159 0
-166 165 0
166 -165 -159 0
-167 -159 0
167 159 0
-168 -165 0
168 165 0
-169 167 0
-169 168 0
169 -168 -167 0
-170 -166 0
-170 -169 0
170 169 166 0
-171 32 0
-171 170 0
171 -170 -32 0
-172 -171 0
172 171 0
-173 -32 0
-173 -170 0
173 170 32 0
-174 -173 0
174 173 0
-175 172 0
-175 174 0
175 -174 -172 0
-176 -175 0
176 175 0
-177 45 0
-177 46 0
177 -46 -45 0
-178 -177 0
178 177 0
-179 -45 0
-179 -46 0
179 46 45 0
-180 -179 0
180 179 0
-181 178 0
-181 180 0
181 -180 -178 0
-182 -181 0
182 181 0
-183 47 0
-183 48 0
183 -48 -47 0
-184 -183 0
184 183 0
-185 -47 0
-185 -48 0
185 48 47 0
-186 -185 0
186 185 0
-187 184 0
-187 186 0
187 -186 -184 0
-188 -187 0
188 187 0
-189 182 0
-189 188 0
189 -188 -182 0
-190 -182 0
190 182 0
-191 -188 0
191 188 0
-192 190 0
-192 191 0
192 -191 -190 0
-193 -189 0
-193 -192 0
193 192 189 0
-194 193 0
-194 49 0
194 -193 -49 0
-195 -194 0
195 194 0
-196 -193 0
-196 -49 0
196 193 49 0
-197 -196 0
197 196 0
-198 195 0
-198 197 0
198 -197 -195 0
-199 -198 0
199 198 0
-200 176 0
-200 199 0
200 -199 -176 0
-201 -176 0
201 176 0
-202 -199 0
202 199 0
-203 201 0
-203 202 0
203 -202 -201 0
-204 -200 0
-204 -203 0
204 203 200 0
-205 50 0
-205 30 0
205 -50 -30 0
-206 -60 0
206 60 0
-207 -206 0
207 206 0
-208 -85 0
208 85 0
-209 -208 0
209 208 0
-210 6 0
-210 16 0
-210 17 0
210 -17 -16 -6 0
-211 209 0
-211 210 0
-211 10 0
211 -210 -209 -10 0
-212 -211 0
212 211 0
-213 -207 0
-213 -212 0
213 212 207 0
-214 -213 0
214 213 0
-215 11 0
-215 40 0
215 -40 -11 0
-216 -215 0
216 215 0
-217 209 0
-217 216 0
-217 4 0
217 -216 -209 -4 0
-218 -217 0
218 217 0
-219 218 0
-219 1 0
219 -218 -1 0
-220 -219 0
220 219 0
-221 39 0
-221 220 0
221 -220 -39 0
-222 -4 0
-222 -8 0
222 8 4 0
-223 4 0
-223 8 0
223 -8 -4 0
-224 -222 0
-224 -223 0
224 223 222 0
-225 224 0
-225 11 0
-225 40 0
-225 209 0
225 -224 -209 -40 -11 0
-226 -225 0
226 225 0
-227 1 0
-227 2 0
-227 9 0
-227 4 0
227 -9 -4 -2 -1 0
-228 -227 0
228 227 0
-229 -228 0
229 228 0
-230 11 0
-230 16 0
-230 8 0
230 -16 -11 -8 0
-231 -230 0
231 230 0
-232 229 0
-232 231 0
232 -231 -229 0
-233 -232 0
233 232 0
-234 226 0
-234 233 0
234 -233 -226 0
-235 -234 0
235 234 0
-236 31 0
-236 235 0
236 -235 -31 0
-237 -221 0
-237 -236 0
237 236 221 0
-238 214 0
-238 237 0
238 -237 -214 0
-239 -238 0
239 238 0
-240 -239 0
-240 -48 0
240 239 48 0
-241 -240 0
241 240 0
-242 239 0
-242 48 0
242 -239 -48 0
-243 -242 0
243 242 0
-244 241 0
-244 243 0
244 -243 -241 0
-245 -244 0
-245 -58 0
245 244 58 0
-246 244 0
-246 58 0
246 -244 -58 0
-247 -245 0
-247 -246 0
247 246 245 0
-248 51 0
-248 247 0
248 -247 -51 0
-249 -205 0
-249 -248 0
249 248 205 0
-250 52 0
-250 244 0
250 -244 -52 0
-251 -243 0
251 243 0
-252 53 0
-252 251 0
252 -251 -53 0
-253 -250 0
-253 -252 0
253 252 250 0
-254 55 0
-254 59 0
254 -59 -55 0
-255 54 0
-255 239 0
255 -239 -54 0
-256 -254 0
-256 -255 0
256 255 254 0
-257 11 0
-257 8 0
-257 12 0
-257 13 0
257 -13 -12 -11 -8 0
-258 -257 0
258 257 0
-259 -89 0
-259 -258 0
259 258 89 0
-260 259 0
-260 14 0
260 -259 -14 0
-261 -260 0
261 260 0
-262 -261 0
262 261 0
-263 262 0
-263 48 0
263 -262 -48 0
-264 -263 0
264 263 0
-265 249 0
-265 253 0
-265 256 0
-265 264 0
265 -264 -256 -253 -249 0
-266 -265 0
266 265 0
-267 -266 0
267 266 0
-268 -267 0
268 267 0
-269 50 0
-269 27 0
269 -50 -27 0
-270 -207 0
-270 -212 0
270 212 207 0
-271 -270 0
271 270 0
-272 35 0
-272 220 0
272 -220 -35 0
-273 28 0
-273 235 0
273 -235 -28 0
-274 -272 0
-274 -273 0
274 273 272 0
-275 271 0
-275 274 0
275 -274 -271 0
-276 -275 0
276 275 0
-277 -276 0
-277 -45 0
277 276 45 0
-278 -277 0
278 277 0
-279 276 0
-279 45 0
279 -276 -45 0
-280 -279 0
280 279 0
-281 278 0
-281 280 0
281 -280 -278 0
-282 -207 0
-282 -212 0
282 212 207 0
-283 -282 0
283 282 0
-284 36 0
-284 220 0
284 -220 -36 0
-285 29 0
-285 235 0
285 -235 -29 0
-286 -284 0
-286 -285 0
286 285 284 0
-287 283 0
-287 286 0
287 -286 -283 0
-288 -287 0
288 287 0
-289 288 0
-289 46 0
289 -288 -46 0
-290 -289 0
290 289 0
-291 -290 0
291 290 0
-292 -291 0
292 291 0
-293 -288 0
-293 -46 0
293 288 46 0
-294 -293 0
294 293 0
-295 -207 0
-295 -212 0
295 212 207 0
-296 -295 0
296 295 0
-297 37 0
-297 220 0
297 -220 -37 0
-298 30 0
-298 235 0
298 -235 -30 0
-299 -297 0
-299 -298 0
299 298 297 0
-300 296 0
-300 299 0
300 -299 -296 0
-301 -300 0
301 300 0
-302 301 0
-302 47 0
302 -301 -47 0
-303 -302 0
303 302 0
-304 -303 0
304 303 0
-305 294 0
-305 304 0
305 -304 -294 0
-306 -305 0
306 305 0
-307 -301 0
-307 -47 0
307 301 47 0
-308 -307 0
308 307 0
-309 294 0
-309 308 0
-309 251 0
309 -308 -294 -251 0
-310 -309 0
310 309 0
-311 294 0
-311 308 0
-311 241 0
-311 58 0
311 -308 -294 -241 -58 0
-312 -311 0
312 311 0
-313 292 0
-313 306 0
-313 310 0
-313 312 0
313 -312 -310 -306 -292 0
-314 -313 0
314 313 0
-315 -281 0
-315 -314 0
315 314 281 0
-316 281 0
-316 314 0
316 -314 -281 0
-317 -315 0
-317 -316 0
317 316 315 0
-318 51 0
-318 317 0
318 -317 -51 0
-319 -269 0
-319 -318 0
319 318 269 0
-320 52 0
-320 281 0
320 -281 -52 0
-321 -280 0
321 280 0
-322 53 0
-322 321 0
322 -321 -53 0
-323 -320 0
-323 -322 0
323 322 320 0
-324 54 0
-324 276 0
324 -276 -54 0
-325 262 0
-325 45 0
325 -262 -45 0
-326 -324 0
-326 -325 0
326 325 324 0
-327 319 0
-327 323 0
-327 326 0
327 -326 -323 -319 0
-328 -327 0
328 327 0
-329 -328 0
329 328 0
-330 -329 0
330 329 0
-331 50 0
-331 28 0
331 -50 -28 0
-332 294 0
-332 290 0
332 -294 -290 0
-333 -304 0
333 304 0
-334 308 0
-334 251 0
334 -308 -251 0
-335 -334 0
335 334 0
-336 308 0
-336 241 0
-336 58 0
336 -308 -241 -58 0
-337 -336 0
337 336 0
-338 333 0
-338 335 0
-338 337 0
338 -337 -335 -333 0
-339 -338 0
339 338 0
-340 -332 0
-340 -339 0
340 339 332 0
-341 332 0
-341 339 0
341 -339 -332 0
-342 -340 0
-342 -341 0
342 341 340 0
-343 51 0
-343 342 0
343 -342 -51 0
-344 -331 0
-344 -343 0
344 343 331 0
-345 52 0
-345 332 0
345 -332 -52 0
-346 53 0
-346 291 0
346 -291 -53 0
-347 -345 0
-347 -346 0
347 346 345 0
-348 55 0
-348 56 0
348 -56 -55 0
-349 54 0
-349 288 0
349 -288 -54 0
-350 -348 0
-350 -349 0
350 349 348 0
-351 262 0
-351 46 0
351 -262 -46 0
-352 -351 0
352 351 0
-353 344 0
-353 347 0
-353 350 0
-353 352 0
353 -352 -350 -347 -344 0
-354 -353 0
354 353 0
-355 -354 0
355 354 0
-356 -355 0
356 355 0
-357 50 0
-357 29 0
357 -50 -29 0
-358 308 0
-358 303 0
358 -308 -303 0
-359 -251 0
359 251 0
-360 241 0
-360 58 0
360 -241 -58 0
-361 -360 0
361 360 0
-362 359 0
-362 361 0
362 -361 -359 0
-363 -362 0
363 362 0
-364 -358 0
-364 -363 0
364 363 358 0
-365 358 0
-365 363 0
365 -363 -358 0
-366 -364 0
-366 -365 0
366 365 364 0
-367 51 0
-367 366 0
367 -366 -51 0
-368 -357 0
-368 -367 0
368 367 357 0
-369 52 0
-369 358 0
369 -358 -52 0
-370 53 0
-370 304 0
370 -304 -53 0
-371 -369 0
-371 -370 0
371 370 369 0
-372 55 0
-372 57 0
372 -57 -55 0
-373 54 0
-373 301 0
373 -301 -54 0
-374 -372 0
-374 -373 0
374 373 372 0
-375 262 0
-375 47 0
375 -262 -47 0
-376 -375 0
376 375 0
-377 368 0
-377 371 0
-377 374 0
-377 376 0
377 -376 -374 -371 -368 0
-378 -377 0
378 377 0
-379 -378 0
379 378 0
-380 -379 0
380 379 0
-381 2 0
-381 34 0
381 -34 -2 0
-382 24 0
-382 235 0
382 -235 -24 0
-383 -381 0
-383 -382 0
383 382 381 0
-384 216 0
-384 209 0
-384 10 0
384 -216 -209 -10 0
-385 35 0
-385 384 0
385 -384 -35 0
-386 209 0
-386 4 0
-386 210 0
386 -210 -209 -4 0
-387 206 0
-387 386 0
387 -386 -206 0
-388 -385 0
-388 -387 0
388 387 385 0
-389 383 0
-389 388 0
389 -388 -383 0
-390 -389 0
390 389 0
-391 390 0
-391 41 0
391 -390 -41 0
-392 -391 0
392 391 0
-393 -392 0
393 392 0
-394 -393 0
394 393 0
-395 9 0
-395 34 0
395 -34 -9 0
-396 25 0
-396 235 0
396 -235 -25 0
-397 -395 0
-397 -396 0
397 396 395 0
-398 36 0
-398 384 0
398 -384 -36 0
-399 206 0
-399 386 0
399 -386 -206 0
-400 -398 0
-400 -399 0
400 399 398 0
-401 397 0
-401 400 0
401 -400 -397 0
-402 -401 0
402 401 0
-403 402 0
-403 42 0
403 -402 -42 0
-404 -403 0
404 403 0
-405 -404 0
405 404 0
-406 -405 0
406 405 0
-407 -402 0
-407 -42 0
407 402 42 0
-408 -407 0
408 407 0
-409 4 0
-409 34 0
409 -34 -4 0
-410 26 0
-410 235 0
410 -235 -26 0
-411 -409 0
-411 -410 0
411 410 409 0
-412 37 0
-412 384 0
412 -384 -37 0
-413 206 0
-413 386 0
413 -386 -206 0
-414 -412 0
-414 -413 0
414 413 412 0
-415 411 0
-415 414 0
415 -414 -411 0
-416 -415 0
416 415 0
-417 416 0
-417 43 0
417 -416 -43 0
-418 -417 0
418 417 0
-419 -418 0
419 418 0
-420 408 0
-420 419 0
420 -419 -408 0
-421 -420 0
421 420 0
-422 -416 0
-422 -43 0
422 416 43 0
-423 -422 0
423 422 0
-424 38 0
-424 34 0
424 -38 -34 0
-425 27 0
-425 235 0
425 -235 -27 0
-426 -424 0
-426 -425 0
426 425 424 0
-427 39 0
-427 384 0
427 -384 -39 0
-428 206 0
-428 386 0
428 -386 -206 0
-429 -427 0
-429 -428 0
429 428 427 0
-430 426 0
-430 429 0
430 -429 -426 0
-431 -430 0
431 430 0
-432 431 0
-432 44 0
432 -431 -44 0
-433 -432 0
433 432 0
-434 -433 0
434 433 0
-435 408 0
-435 423 0
-435 434 0
435 -434 -423 -408 0
-436 -435 0
436 435 0
-437 -431 0
-437 -44 0
437 431 44 0
-438 -437 0
438 437 0
-439 278 0
-439 314 0
439 -314 -278 0
-440 -439 0
440 439 0
-441 -321 0
441 321 0
-442 440 0
-442 441 0
442 -441 -440 0
-443 -442 0
443 442 0
-444 408 0
-444 423 0
-444 438 0
-444 443 0
444 -443 -438 -423 -408 0
-445 -444 0
445 444 0
-446 406 0
-446 421 0
-446 436 0
-446 445 0
446 -445 -436 -421 -406 0
-447 -446 0
447 446 0
-448 -390 0
-448 -41 0
448 390 41 0
-449 -448 0
449 448 0
-450 447 0
-450 449 0
450 -449 -447 0
-451 -450 0
451 450 0
-452 394 0
-452 451 0
452 -451 -394 0
-453 -452 0
453 452 0
-454 50 0
-454 26 0
454 -50 -26 0
-455 438 0
-455 433 0
455 -438 -433 0
-456 -455 0
-456 -443 0
456 455 443 0
-457 455 0
-457 443 0
457 -455 -443 0
-458 -456 0
-458 -457 0
458 457 456 0
-459 51 0
-459 458 0
459 -458 -51 0
-460 -454 0
-460 -459 0
460 459 454 0
-461 52 0
-461 455 0
461 -455 -52 0
-462 53 0
-462 434 0
462 -434 -53 0
-463 -461 0
-463 -462 0
463 462 461 0
-464 54 0
-464 431 0
464 -431 -54 0
-465 262 0
-465 44 0
465 -262 -44 0
-466 -464 0
-466 -465 0
466 465 464 0
-467 460 0
-467 463 0
-467 466 0
467 -466 -463 -460 0
-468 -467 0
468 467 0
-469 -468 0
469 468 0
-470 -469 0
470 469 0
-471 50 0
-471 207 0
471 -207 -50 0
-472 449 0
-472 392 0
472 -449 -392 0
-473 -472 0
-473 -447 0
473 472 447 0
-474 472 0
-474 447 0
474 -472 -447 0
-475 -473 0
-475 -474 0
475 474 473 0
-476 51 0
-476 475 0
476 -475 -51 0
-477 -471 0
-477 -476 0
477 476 471 0
-478 52 0
-478 472 0
478 -472 -52 0
-479 53 0
-479 393 0
479 -393 -53 0
-480 -478 0
-480 -479 0
480 479 478 0
-481 54 0
-481 390 0
481 -390 -54 0
-482 262 0
-482 41 0
482 -262 -41 0
-483 -481 0
-483 -482 0
483 482 481 0
-484 477 0
-484 480 0
-484 483 0
484 -483 -480 -477 0
-485 -484 0
485 484 0
-486 -485 0
486 485 0
-487 -486 0
487 486 0
-488 50 0
-488 24 0
488 -50 -24 0
-489 408 0
-489 404 0
489 -408 -404 0
-490 -419 0
490 419 0
-491 423 0
-491 434 0
491 -434 -423 0
-492 -491 0
492 491 0
-493 423 0
-493 438 0
-493 443 0
493 -443 -438 -423 0
-494 -493 0
494 493 0
-495 490 0
-495 492 0
-495 494 0
495 -494 -492 -490 0
-496 -495 0
496 495 0
-497 -489 0
-497 -496 0
497 496 489 0
-498 489 0
-498 496 0
498 -496 -489 0
-499 -497 0
-499 -498 0
499 498 497 0
-500 51 0
-500 499 0
500 -499 -51 0
-501 -488 0
-501 -500 0
501 500 488 0
-502 52 0
-502 489 0
502 -489 -52 0
-503 53 0
-503 405 0
503 -405 -53 0
-504 -502 0
-504 -503 0
504 503 502 0
-505 54 0
-505 402 0
505 -402 -54 0
-506 262 0
-506 42 0
506 -262 -42 0
-507 -505 0
-507 -506 0
507 506 505 0
-508 501 0
-508 504 0
-508 507 0
508 -507 -504 -501 0
-509 -508 0
509 508 0
-510 -509 0
510 509 0
-511 -510 0
511 510 0
-512 50 0
-512 25 0
512 -50 -25 0
-513 423 0
-513 418 0
513 -423 -418 0
-514 -434 0
514 434 0
-515 438 0
-515 443 0
515 -443 -438 0
-516 -515 0
516 515 0
-517 514 0
-517 516 0
517 -516 -514 0
-518 -517 0
518 517 0
-519 -513 0
-519 -518 0
519 518 513 0
-520 513 0
-520 518 0
520 -518 -513 0
-521 -519 0
-521 -520 0
521 520 519 0
-522 51 0
-522 521 0
522 -521 -51 0
-523 -512 0
-523 -522 0
523 522 512 0
-524 52 0
-524 513 0
524 -513 -52 0
-525 53 0
-525 419 0
525 -419 -53 0
-526 -524 0
-526 -525 0
526 525 524 0
-527 54 0
-527 416 0
527 -416 -54 0
-528 262 0
-528 43 0
528 -262 -43 0
-529 -527 0
-529 -528 0
529 528 527 0
-530 523 0
-530 526 0
-530 529 0
530 -529 -526 -523 0
-531 -530 0
531 530 0
-532 -531 0
532 531 0
-533 -532 0
533 532 0
-597 6 0
-597 16 0
-597 8 0
597 -16 -8 -6 0
-598 6 0
-598 7 0
-598 17 0
598 -17 -7 -6 0
-599 6 0
-599 7 0
-599 8 0
599 -8 -7 -6 0
-600 18 0
-600 19 0
600 -19 -18 0
-601 1 0
-601 2 0
-601 3 0
-601 4 0
601 -4 -3 -2 -1 0
-602 -601 0
602 601 0
-603 -602 0
603 602 0
-604 1 0
-604 5 0
-604 3 0
-604 4 0
604 -5 -4 -3 -1 0
-605 -604 0
605 604 0
-606 6 0
-606 7 0
-606 8 0
606 -8 -7 -6 0
-607 -605 0
-607 -606 0
607 606 605 0
-608 -607 0
608 607 0
-609 11 0
-609 16 0
-609 17 0
609 -17 -16 -11 0
-610 -609 0
610 609 0
-611 11 0
-611 7 0
-611 17 0
611 -17 -11 -7 0
-612 -611 0
612 611 0
-613 11 0
-613 7 0
-613 8 0
613 -11 -8 -7 0
-614 -613 0
614 613 0
-615 -20 0
-615 -21 0
615 21 20 0
-616 -615 0
616 615 0
-617 23 0
-617 616 0
617 -616 -23 0
-618 -606 0
618 606 0
-619 -605 0
-619 -618 0
619 618 605 0
-620 -619 0
620 619 0
-621 1 0
-621 5 0
-621 9 0
621 -9 -5 -1 0
-622 -621 0
622 621 0
-623 -622 0
623 622 0
-624 1 0
-624 2 0
-624 3 0
-624 10 0
624 -10 -3 -2 -1 0
-625 -624 0
625 624 0
-626 11 0
-626 12 0
-626 15 0
626 -15 -12 -11 0
-627 -626 0
627 626 0
-628 -625 0
-628 -627 0
628 627 625 0
-629 -628 0
629 628 0
-630 -629 0
630 629 0
-631 22 0
-631 616 0
631 -616 -22 0
-632 -631 0
632 631 0
-633 -632 0
633 632 0
-634 24 0
-634 25 0
634 -25 -24 0
-635 -634 0
635 634 0
-636 -24 0
-636 -25 0
636 25 24 0
-637 -636 0
637 636 0
-638 635 0
-638 637 0
638 -637 -635 0
-639 -638 0
639 638 0
-640 26 0
-640 27 0
640 -27 -26 0
-641 -640 0
641 640 0
-642 -26 0
-642 -27 0
642 27 26 0
-643 -642 0
643 642 0
-644 641 0
-644 643 0
644 -643 -641 0
-645 -644 0
645 644 0
-646 639 0
-646 645 0
646 -645 -639 0
-647 -639 0
647 639 0
-648 -645 0
648 645 0
-649 647 0
-649 648 0
649 -648 -647 0
-650 -646 0
-650 -649 0
650 649 646 0
-651 32 0
-651 650 0
651 -650 -32 0
-652 -651 0
652 651 0
-653 -32 0
-653 -650 0
653 650 32 0
-654 -653 0
654 653 0
-655 652 0
-655 654 0
655 -654 -652 0
-656 -655 0
656 655 0
-657 28 0
-657 29 0
657 -29 -28 0
-658 -657 0
658 657 0
-659 -28 0
-659 -29 0
659 29 28 0
-660 -659 0
660 659 0
-661 658 0
-661 660 0
661 -660 -658 0
-662 -661 0
662 661 0
-663 30 0
-663 31 0
663 -31 -30 0
-664 -663 0
664 663 0
-665 -30 0
-665 -31 0
665 31 30 0
-666 -665 0
666 665 0
-667 664 0
-667 666 0
667 -666 -664 0
-668 -667 0
668 667 0
-669 662 0
-669 668 0
669 -668 -662 0
-670 -662 0
670 662 0
-671 -668 0
671 668 0
-672 670 0
-672 671 0
672 -671 -670 0
-673 -669 0
-673 -672 0
673 672 669 0
-674 673 0
-674 33 0
674 -673 -33 0
-675 -674 0
675 674 0
-676 -673 0
-676 -33 0
676 673 33 0
-677 -676 0
677 676 0
-678 675 0
-678 677 0
678 -677 -675 0
-679 -678 0
679 678 0
-680 656 0
-680 679 0
680 -679 -656 0
-681 -656 0
681 656 0
-682 -679 0
682 679 0
-683 681 0
-683 682 0
683 -682 -681 0
-684 -680 0
-684 -683 0
684 683 680 0
-685 41 0
-685 42 0
685 -42 -41 0
-686 -685 0
686 685 0
-687 -41 0
-687 -42 0
687 42 41 0
-688 -687 0
688 687 0
-689 686 0
-689 688 0
689 -688 -686 0
-690 -689 0
690 689 0
-691 43 0
-691 44 0
691 -44 -43 0
-692 -691 0
692 691 0
-693 -43 0
-693 -44 0
693 44 43 0
-694 -693 0
694 693 0
-695 692 0
-695 694 0
695 -694 -692 0
-696 -695 0
696 695 0
-697 690 0
-697 696 0
697 -696 -690 0
-698 -690 0
698 690 0
-699 -696 0
699 696 0
-700 698 0
-700 699 0
700 -699 -698 0
-701 -697 0
-701 -700 0
701 700 697 0
-702 32 0
-702 701 0
702 -701 -32 0
-703 -702 0
703 702 0
-704 -32 0
-704 -701 0
704 701 32 0
-705 -704 0
705 704 0
-706 703 0
-706 705 0
706 -705 -703 0
-707 -706 0
707 706 0
-708 45 0
-708 46 0
708 -46 -45 0
-709 -708 0
709 708 0
-710 -45 0
-710 -46 0
710 46 45 0
-711 -710 0
711 710 0
-712 709 0
-712 711 0
712 -711 -709 0
-713 -712 0
713 712 0
-714 47 0
-714 48 0
714 -48 -47 0
-715 -714 0
715 714 0
-716 -47 0
-716 -48 0
716 48 47 0
-717 -716 0
717 716 0
-718 715 0
-718 717 0
718 -717 -715 0
-719 -718 0
719 718 0
-720 713 0
-720 719 0
720 -719 -713 0
-721 -713 0
721 713 0
-722 -719 0
722 719 0
-723 721 0
-723 722 0
723 -722 -721 0
-724 -720 0
-724 -723 0
724 723 720 0
-725 724 0
-725 49 0
725 -724 -49 0
-726 -725 0
726 725 0
-727 -724 0
-727 -49 0
727 724 49 0
-728 -727 0
728 727 0
-729 726 0
-729 728 0
729 -728 -726 0
-730 -729 0
730 729 0
-731 707 0
-731 730 0
731 -730 -707 0
-732 -707 0
732 707 0
-733 -730 0
733 730 0
-734 732 0
-734 733 0
734 -733 -732 0
-735 -731 0
-735 -734 0
735 734 731 0
-736 52 0
538 -736 0
-538 736 -52 0
-737 -60 0
737 60 0
-738 -737 0
738 737 0
-739 -621 0
739 621 0
-740 -739 0
740 739 0
-741 6 0
-741 16 0
-741 17 0
741 -17 -16 -6 0
-742 740 0
-742 741 0
-742 10 0
742 -741 -740 -10 0
-743 -742 0
743 742 0
-744 -738 0
-744 -743 0
744 743 738 0
-745 -744 0
745 744 0
-746 11 0
-746 40 0
746 -40 -11 0
-747 -746 0
747 746 0
-748 740 0
-748 747 0
-748 4 0
748 -747 -740 -4 0
-749 -748 0
749 748 0
-750 749 0
-750 1 0
750 -749 -1 0
-751 -750 0
751 750 0
-752 39 0
-752 751 0
752 -751 -39 0
-753 -4 0
-753 -8 0
753 8 4 0
-754 4 0
-754 8 0
754 -8 -4 0
-755 -753 0
-755 -754 0
755 754 753 0
-756 755 0
-756 11 0
-756 40 0
-756 740 0
756 -755 -740 -40 -11 0
-757 -756 0
757 756 0
-758 1 0
-758 2 0
-758 9 0
-758 4 0
758 -9 -4 -2 -1 0
-759 -758 0
759 758 0
-760 -759 0
760 759 0
-761 11 0
-761 16 0
-761 8 0
761 -16 -11 -8 0
-762 -761 0
762 761 0
-763 760 0
-763 762 0
763 -762 -760 0
-764 -763 0
764 763 0
-765 757 0
-765 764 0
765 -764 -757 0
-766 -765 0
766 765 0
-767 31 0
-767 766 0
767 -766 -31 0
-768 -752 0
-768 -767 0
768 767 752 0
-769 745 0
-769 768 0
769 -768 -745 0
-770 -769 0
770 769 0
-771 770 0
-771 48 0
771 -770 -48 0
-772 -771 0
772 771 0
-773 -772 0
773 772 0
-774 53 0
-774 773 0
774 -773 -53 0
-775 -736 0
-775 -774 0
775 774 736 0
-776 55 0
-776 59 0
776 -59 -55 0
-777 -776 0
-539 -777 0
539 777 776 0
-778 11 0
-778 8 0
-778 12 0
-778 13 0
778 -13 -12 -11 -8 0
-779 -778 0
779 778 0
-780 -625 0
-780 -779 0
780 779 625 0
-781 780 0
-781 14 0
781 -780 -14 0
-782 -781 0
782 781 0
-783 -782 0
783 782 0
-784 783 0
-784 48 0
784 -783 -48 0
-785 -784 0
785 784 0
537 -786 0
-786 775 0
-786 777 0
-786 785 0
-537 786 -785 -777 -775 0
-787 -786 0
787 786 0
-788 -787 0
788 787 0
-789 -788 0
789 788 0
-790 50 0
-790 27 0
790 -50 -27 0
-791 -738 0
-791 -743 0
791 743 738 0
-792 -791 0
792 791 0
-793 35 0
-793 751 0
793 -751 -35 0
-794 28 0
-794 766 0
794 -766 -28 0
-795 -793 0
-795 -794 0
795 794 793 0
-796 792 0
-796 795 0
796 -795 -792 0
-797 -796 0
797 796 0
-798 -797 0
-798 -45 0
798 797 45 0
-799 -798 0
799 798 0
-800 797 0
-800 45 0
800 -797 -45 0
-801 -800 0
801 800 0
-802 799 0
-802 801 0
802 -801 -799 0
-803 -738 0
-803 -743 0
803 743 738 0
-804 -803 0
804 803 0
-805 36 0
-805 751 0
805 -751 -36 0
-806 29 0
-806 766 0
806 -766 -29 0
-807 -805 0
-807 -806 0
807 806 805 0
-808 804 0
-808 807 0
808 -807 -804 0
-809 -808 0
809 808 0
-810 809 0
-810 46 0
810 -809 -46 0
-811 -810 0
811 810 0
-812 -811 0
812 811 0
-813 -812 0
813 812 0
-814 -809 0
-814 -46 0
814 809 46 0
-815 -814 0
815 814 0
-816 -738 0
-816 -743 0
816 743 738 0
-817 -816 0
817 816 0
-818 37 0
-818 751 0
818 -751 -37 0
-819 30 0
-819 766 0
819 -766 -30 0
-820 -818 0
-820 -819 0
820 819 818 0
-821 817 0
-821 820 0
821 -820 -817 0
-822 -821 0
822 821 0
-823 822 0
-823 47 0
823 -822 -47 0
-824 -823 0
824 823 0
-825 -824 0
825 824 0
-826 815 0
-826 825 0
826 -825 -815 0
-827 -826 0
827 826 0
-828 -822 0
-828 -47 0
828 822 47 0
-829 -828 0
829 828 0
-830 815 0
-830 829 0
-830 773 0
830 -829 -815 -773 0
-831 -830 0
831 830 0
-832 -770 0
-832 -48 0
832 770 48 0
-833 -832 0
833 832 0
-834 815 0
-834 829 0
-834 833 0
-834 58 0
834 -833 -829 -815 -58 0
-835 -834 0
835 834 0
-836 813 0
-836 827 0
-836 831 0
-836 835 0
836 -835 -831 -827 -813 0
-837 -836 0
837 836 0
-838 -802 0
-838 -837 0
838 837 802 0
-839 802 0
-839 837 0
839 -837 -802 0
-840 -838 0
-840 -839 0
840 839 838 0
-841 51 0
-841 840 0
841 -840 -51 0
-842 -790 0
-842 -841 0
842 841 790 0
-843 52 0
-843 802 0
843 -802 -52 0
-844 -801 0
844 801 0
-845 53 0
-845 844 0
845 -844 -53 0
-846 -843 0
-846 -845 0
846 845 843 0
-847 54 0
-847 797 0
847 -797 -54 0
-848 783 0
-848 45 0
848 -783 -45 0
-849 -847 0
-849 -848 0
849 848 847 0
-850 842 0
-850 846 0
-850 849 0
850 -849 -846 -842 0
-851 -850 0
851 850 0
-852 -851 0
852 851 0
-853 -852 0
853 852 0
-854 50 0
-854 28 0
854 -50 -28 0
-855 815 0
-855 811 0
855 -815 -811 0
-856 -825 0
856 825 0
-857 829 0
-857 773 0
857 -829 -773 0
-858 -857 0
858 857 0
-859 829 0
-859 833 0
-859 58 0
859 -833 -829 -58 0
-860 -859 0
860 859 0
-861 856 0
-861 858 0
-861 860 0
861 -860 -858 -856 0
-862 -861 0
862 861 0
-863 -855 0
-863 -862 0
863 862 855 0
-864 855 0
-864 862 0
864 -862 -855 0
-865 -863 0
-865 -864 0
865 864 863 0
-866 51 0
-866 865 0
866 -865 -51 0
-867 -854 0
-867 -866 0
867 866 854 0
-868 52 0
-868 855 0
868 -855 -52 0
-869 -868 0
-540 -869 0
540 869 868 0
-870 55 0
-870 56 0
870 -56 -55 0
-871 54 0
-871 809 0
871 -809 -54 0
-872 -870 0
-872 -871 0
872 871 870 0
-873 783 0
-873 46 0
873 -783 -46 0
-874 -873 0
874 873 0
-875 867 0
-875 869 0
-875 872 0
-875 874 0
875 -874 -872 -869 -867 0
-876 -875 0
876 875 0
-877 -876 0
877 876 0
-878 -877 0
878 877 0
545 -879 0
-879 41 0
-545 879 -41 0
-880 -879 0
880 879 0
-881 -880 0
881 880 0
-882 -881 0
882 881 0
549 -883 0
-883 42 0
-549 883 -42 0
-884 -883 0
884 883 0
-885 -884 0
885 884 0
-886 -885 0
886 885 0
-887 4 0
-887 34 0
887 -34 -4 0
-888 26 0
-888 766 0
888 -766 -26 0
-889 -887 0
-889 -888 0
889 888 887 0
-890 747 0
-890 740 0
-890 10 0
890 -747 -740 -10 0
-891 37 0
-891 890 0
891 -890 -37 0
-892 740 0
-892 4 0
-892 741 0
892 -741 -740 -4 0
-893 737 0
-893 892 0
893 -892 -737 0
-894 -891 0
-894 -893 0
894 893 891 0
-895 889 0
-895 894 0
895 -894 -889 0
-896 -895 0
896 895 0
-897 896 0
-897 43 0
897 -896 -43 0
-898 -897 0
898 897 0
-899 -898 0
899 898 0
548 -900 0
-900 899 0
-548 900 -899 0
-901 -900 0
901 900 0
-902 38 0
-902 34 0
902 -38 -34 0
-903 27 0
-903 766 0
903 -766 -27 0
-904 -902 0
-904 -903 0
904 903 902 0
-905 39 0
-905 890 0
905 -890 -39 0
-906 737 0
-906 892 0
906 -892 -737 0
-907 -905 0
-907 -906 0
907 906 905 0
-908 904 0
-908 907 0
908 -907 -904 0
-909 -908 0
909 908 0
-910 909 0
-910 44 0
910 -909 -44 0
-911 -910 0
911 910 0
-912 -911 0
912 911 0
548 -913 0
536 -913 0
-913 912 0
-536 -548 913 -912 0
-914 -913 0
914 913 0
-915 886 0
-915 901 0
-915 914 0
547 -915 0
-547 915 -914 -901 -886 0
-916 -915 0
916 915 0
-545 -917 0
-917 -41 0
545 917 41 0
-918 -917 0
918 917 0
-919 916 0
-919 918 0
919 -918 -916 0
-920 -919 0
920 919 0
-921 882 0
-921 920 0
921 -920 -882 0
-922 -921 0
922 921 0
-923 50 0
-923 26 0
923 -50 -26 0
-924 -909 0
-924 -44 0
924 909 44 0
-925 -924 0
925 924 0
-926 925 0
-926 911 0
926 -925 -911 0
-927 799 0
-927 837 0
927 -837 -799 0
-928 -927 0
928 927 0
-929 -844 0
929 844 0
-930 928 0
-930 929 0
930 -929 -928 0
-931 -930 0
931 930 0
-932 -926 0
-932 -931 0
932 931 926 0
-933 926 0
-933 931 0
933 -931 -926 0
-934 -932 0
-934 -933 0
934 933 932 0
-935 51 0
-935 934 0
935 -934 -51 0
-936 -923 0
-936 -935 0
936 935 923 0
-937 52 0
-937 926 0
937 -926 -52 0
-938 53 0
-938 912 0
938 -912 -53 0
-939 -937 0
-939 -938 0
939 938 937 0
-940 54 0
-940 909 0
940 -909 -54 0
-941 783 0
-941 44 0
941 -783 -44 0
-942 -940 0
-942 -941 0
942 941 940 0
-943 936 0
-943 939 0
-943 942 0
943 -942 -939 -936 0
-944 -943 0
944 943 0
-945 -944 0
945 944 0
-946 -945 0
946 945 0
-947 50 0
-947 738 0
947 -738 -50 0
-948 918 0
-948 880 0
948 -918 -880 0
-949 -948 0
-949 -916 0
949 948 916 0
-950 948 0
-950 916 0
950 -948 -916 0
-951 -949 0
-951 -950 0
951 950 949 0
-952 51 0
-952 951 0
952 -951 -51 0
-953 -947 0
-953 -952 0
953 952 947 0
-954 52 0
-954 948 0
954 -948 -52 0
-955 53 0
-955 881 0
955 -881 -53 0
-956 -954 0
-956 -955 0
956 955 954 0
-957 953 0
-957 956 0
544 -957 0
-544 957 -956 -953 0
-958 -957 0
958 957 0
-959 -958 0
959 958 0
-960 -959 0
960 959 0
-961 50 0
-961 24 0
961 -50 -24 0
548 -962 0
-962 884 0
-548 962 -884 0
-963 -899 0
963 899 0
536 -964 0
-964 912 0
-536 964 -912 0
-965 -964 0
965 964 0
536 -966 0
-966 925 0
-966 931 0
-536 966 -931 -925 0
-967 -966 0
967 966 0
-968 963 0
-968 965 0
-968 967 0
968 -967 -965 -963 0
-969 -968 0
969 968 0
-970 -962 0
-970 -969 0
970 969 962 0
-971 962 0
-971 969 0
971 -969 -962 0
-972 -970 0
-972 -971 0
972 971 970 0
-973 51 0
-973 972 0
973 -972 -51 0
-974 -961 0
-974 -973 0
974 973 961 0
-975 52 0
-975 962 0
975 -962 -52 0
-976 53 0
-976 885 0
976 -885 -53 0
-977 -975 0
-977 -976 0
977 976 975 0
-978 54 0
549 -978 0
-549 978 -54 0
-979 783 0
-979 42 0
979 -783 -42 0
-980 -978 0
-980 -979 0
980 979 978 0
-981 974 0
-981 977 0
-981 980 0
981 -980 -977 -974 0
-982 -981 0
982 981 0
-983 -982 0
983 982 0
-984 -983 0
984 983 0
-985 50 0
-985 25 0
985 -50 -25 0
-986 -985 0
-534 -986 0
534 986 985 0
-987 52 0
535 -987 0
-535 987 -52 0
-988 53 0
-988 899 0
988 -899 -53 0
-989 -987 0
-989 -988 0
989 988 987 0
-990 54 0
-990 896 0
990 -896 -54 0
-991 783 0
-991 43 0
991 -783 -43 0
-992 -990 0
-992 -991 0
992 991 990 0
-993 986 0
-993 989 0
-993 992 0
993 -992 -989 -986 0
-994 -993 0
994 993 0
-995 -994 0
995 994 0
-996 -995 0
996 995 0
-997 35 0
-997 890 0
997 -890 -35 0
-998 737 0
-998 892 0
998 -892 -737 0
-999 -912 0
999 912 0
-1000 925 0
-1000 931 0
1000 -931 -925 0
-1001 -1000 0
1001 1000 0
-1002 50 0
-1002 29 0
1002 -50 -29 0
-1003 -773 0
1003 773 0
-1004 833 0
-1004 58 0
1004 -833 -58 0
-1005 -1004 0
1005 1004 0
-1006 1003 0
-1006 1005 0
1006 -1005 -1003 0
-1007 -1006 0
1007 1006 0
-542 -1008 0
-1008 -1007 0
542 1008 1007 0
542 -1009 0
-1009 1007 0
-542 1009 -1007 0
-1010 -1008 0
-1010 -1009 0
1010 1009 1008 0
-1011 51 0
-1011 1010 0
1011 -1010 -51 0
-1012 52 0
542 -1012 0
-542 1012 -52 0
-1013 53 0
-1013 825 0
1013 -825 -53 0
-1014 55 0
-1014 57 0
1014 -57 -55 0
-1015 54 0
-1015 822 0
1015 -822 -54 0
-1016 783 0
-1016 47 0
1016 -783 -47 0
-1017 -1016 0
1017 1016 0
-1018 9 0
-1018 34 0
1018 -34 -9 0
-1019 36 0
-1019 890 0
1019 -890 -36 0
-1020 737 0
-1020 892 0
1020 -892 -737 0
-1021 -597 -61 0
-1021 597 61 0
1021 -597 61 0
1021 597 -61 0
-1022 -598 -62 0
-1022 598 62 0
1022 -598 62 0
1022 598 -62 0
-1023 -599 -63 0
-1023 599 63 0
1023 -599 63 0
1023 599 -63 0
-1024 -600 -64 0
-1024 600 64 0
1024 -600 64 0
1024 600 -64 0
-1025 -603 -67 0
-1025 603 67 0
1025 -603 67 0
1025 603 -67 0
-1026 -608 -72 0
-1026 608 72 0
1026 -608 72 0
1026 608 -72 0
-1027 -610 -74 0
-1027 610 74 0
1027 -610 74 0
1027 610 -74 0
-1028 -612 -76 0
-1028 612 76 0
1028 -612 76 0
1028 612 -76 0
-1029 -614 -78 0
-1029 614 78 0
1029 -614 78 0
1029 614 -78 0
-1030 -617 -81 0
-1030 617 81 0
1030 -617 81 0
1030 617 -81 0
-1031 -620 -84 0
-1031 620 84 0
1031 -620 84 0
1031 620 -84 0
-1032 -623 -87 0
-1032 623 87 0
1032 -623 87 0
1032 623 -87 0
-543 -1033 -94 0
543 -1033 94 0
-543 1033 94 0
543 1033 -94 0
-1034 -630 -99 0
-1034 630 99 0
1034 -630 99 0
1034 630 -99 0
-1035 -633 -102 0
-1035 633 102 0
1035 -633 102 0
1035 633 -102 0
-1036 -684 -153 0
-1036 684 153 0
1036 -684 153 0
1036 684 -153 0
-1037 -735 -204 0
-1037 735 204 0
1037 -735 204 0
1037 735 -204 0
-1038 -789 -268 0
-1038 789 268 0
1038 -789 268 0
1038 789 -268 0
-1039 -853 -330 0
-1039 853 330 0
1039 -853 330 0
1039 853 -330 0
-1040 -878 -356 0
-1040 878 356 0
1040 -878 356 0
1040 878 -356 0
-541 -1041 -380 0
541 -1041 380 0
-541 1041 380 0
541 1041 -380 0
-1042 -922 -453 0
-1042 922 453 0
1042 -922 453 0
1042 922 -453 0
-1043 -946 -470 0
-1043 946 470 0
1043 -946 470 0
1043 946 -470 0
-1044 -960 -487 0
-1044 960 487 0
1044 -960 487 0
1044 960 -487 0
-1045 -984 -511 0
-1045 984 511 0
1045 -984 511 0
1045 984 -511 0
-1046 -996 -533 0
-1046 996 533 0
1046 -996 533 0
1046 996 -533 0
1046 1045 1044 1043 1042 1041 1040 1039 1038 1037 1036 1035 1034 1033 1032 1031 1030 1029 1028 1027 1026 1025 1024 1023 1022 1021 0
-550 625 0
550 -625 0
-551 6 0
551 -6 0
-552 12 0
552 -12 0
-553 25 0
553 -25 0
-554 766 0
554 -766 0
-555 54 0
555 -54 0
-556 2 0
556 -2 0
-557 34 0
557 -34 0
-558 24 0
558 -24 0
-559 766 0
559 -766 0
-560 997 0
560 -997 0
-561 998 0
561 -998 0
-562 783 0
562 -783 0
-563 41 0
563 -41 0
-564 54 0
564 -54 0
-565 770 0
565 -770 0
-566 829 0
566 -829 0
-567 824 0
567 -824 0
-568 50 0
568 -50 0
-569 30 0
569 -30 0
-570 51 0
570 -51 0
-571 833 0
571 -833 0
-572 772 0
572 -772 0
-573 58 0
573 -58 0
-574 53 0
574 -53 0
-575 812 0
575 -812 0
-576 51 0
576 -51 0
-577 896 0
577 -896 0
-578 43 0
578 -43 0
-579 898 0
579 -898 0
-580 999 0
580 -999 0
-581 1001 0
581 -1001 0
-582 1002 0
582 -1002 0
-583 1011 0
583 -1011 0
-584 1012 0
584 -1012 0
-585 1013 0
585 -1013 0
-586 1014 0
586 -1014 0
-587 1015 0
587 -1015 0
-588 1017 0
588 -1017 0
-589 1018 0
589 -1018 0
-591 1019 0
591 -1019 0
-592 1020 0
592 -1020 0
-593 42 0
593 -42 0
-595 925 0
595 -925 0
-596 931 0
596 -931 0
